StringID	Type	x	y	Delivery	Pickup	ReadyTime	DueDate	ServiceTime
D0	d	40.0	50.0	0.0	0.0	0.0	960.0	0.0
S0	f	40.0	50.0	0.0	0.0	0.0	960.0	0.0
S9	f	14.0	59.0	0.0	0.0	0.0	960.0	0.0
S13	f	22.0	34.0	0.0	0.0	0.0	960.0	0.0
S15	f	39.0	26.0	0.0	0.0	0.0	960.0	0.0
C23	c	38.0	5.0	3.9473684210526314	26.05263157894737	0.0	904.0	10.0
C19	c	42.0	10.0	9.523809523809524	30.476190476190474	0.0	909.0	10.0
C49	c	42.0	12.0	2.8571428571428568	7.142857142857143	0.0	911.0	10.0
C4	c	20.0	80.0	10.0	30.0	712.0	832.0	10.0
C81	c	49.0	58.0	8.448275862068966	1.5517241379310338	0.0	937.0	10.0

Q Vehicle fuel tank capacity /77.75/
C Vehicle load capacity /1000.0/
r fuel consumption rate /1.0/
g inverse refueling rate /0.39/
v average Velocity /1.0/
